c A SAT instance generated from a 3-CNF formula that had 15 clauses and 5 variables
p cnf 5 15
4 -5 2 0
4 -1 -5 0
-3 -1 4 0
-2 -4 -5 0
3 4 -2 0
3 1 5 0
-3 -5 -4 0
-3 -1 4 0
3 1 2 0
1 -5 -4 0
5 -4 -2 0
2 3 5 0
5 3 1 0
-5 -1 2 0
1 2 3 0
%
0

1 20 70 62 84
